;; sequence(s): A157264
;; terms: 577 15841 51841 108577 186049 284257 403201 542881 703297 884449 1086337 1308961 1552321 1816417 2101249 2406817 2733121 3080161 3447937 3836449
;; small program: (loop(x * x, 1, loop2((2 * (x + x)) + y, x, 1 + 2, x, 1)) * 2) - 1
;; fast program: loop(1 + (2 * loop((2 + x) * x, 1, 2 * ((2 * (2 * (2 + (x + x)))) + x))), 1, 2 * (x + x))
(set-logic UFNIA)
(declare-fun f0 (Int) Int)
(declare-fun g0 () Int)
(declare-fun f1 (Int Int) Int)
(declare-fun g1 (Int) Int)
(declare-fun h1 () Int)
(declare-fun i1 (Int) Int)
(declare-fun j1 () Int)
(declare-fun u1 (Int Int Int) Int)
(declare-fun v1 (Int Int Int) Int)
(declare-fun w1 (Int) Int)
(declare-fun h0 (Int) Int)
(declare-fun u0 (Int Int) Int)
(declare-fun v0 (Int) Int)
(declare-fun small (Int) Int)
(declare-fun f3 (Int) Int)
(declare-fun g3 () Int)
(declare-fun h3 (Int) Int)
(declare-fun u3 (Int Int) Int)
(declare-fun v3 (Int) Int)
(declare-fun f2 (Int) Int)
(declare-fun g2 () Int)
(declare-fun h2 (Int) Int)
(declare-fun u2 (Int Int) Int)
(declare-fun v2 (Int) Int)
(declare-fun fast (Int) Int)
(assert (forall ((x Int)) (= (f0 x) (* x x))))
(assert (= g0 1))
(assert (forall ((x Int) (y Int)) (= (f1 x y) (+ (* 2 (+ x x)) y))))
(assert (forall ((x Int)) (= (g1 x) x)))
(assert (= h1 (+ 1 2)))
(assert (forall ((x Int)) (= (i1 x) x)))
(assert (= j1 1))
(assert (forall ((x Int) (y Int) (z Int)) (= (u1 x y z) (ite (<= x 0) y (f1 (u1 (- x 1) y z) (v1 (- x 1) y z))))))
(assert (forall ((x Int) (y Int) (z Int)) (= (v1 x y z) (ite (<= x 0) z (g1 (u1 (- x 1) y z))))))
(assert (forall ((x Int)) (= (w1 x) (u1 h1 (i1 x) j1))))
(assert (forall ((x Int)) (= (h0 x) (w1 x))))
(assert (forall ((x Int) (y Int)) (= (u0 x y) (ite (<= x 0) y (f0 (u0 (- x 1) y))))))
(assert (forall ((x Int)) (= (v0 x) (u0 g0 (h0 x)))))
(assert (forall ((x Int)) (= (small x) (- (* (v0 x) 2) 1))))
(assert (forall ((x Int)) (= (f3 x) (* (+ 2 x) x))))
(assert (= g3 1))
(assert (forall ((x Int)) (= (h3 x) (* 2 (+ (* 2 (* 2 (+ 2 (+ x x)))) x)))))
(assert (forall ((x Int) (y Int)) (= (u3 x y) (ite (<= x 0) y (f3 (u3 (- x 1) y))))))
(assert (forall ((x Int)) (= (v3 x) (u3 g3 (h3 x)))))
(assert (forall ((x Int)) (= (f2 x) (+ 1 (* 2 (v3 x))))))
(assert (= g2 1))
(assert (forall ((x Int)) (= (h2 x) (* 2 (+ x x)))))
(assert (forall ((x Int) (y Int)) (= (u2 x y) (ite (<= x 0) y (f2 (u2 (- x 1) y))))))
(assert (forall ((x Int)) (= (v2 x) (u2 g2 (h2 x)))))
(assert (forall ((x Int)) (= (fast x) (v2 x))))
(assert (exists ((c Int)) (and (>= c 0) (not (= (small c) (fast c))))))
(check-sat)
